NAME: p43.1.sop
TYPE: SOP
COMMENT: Received by Norbert Ascheuer (based on p43.atsp)
DIMENSION: 44
EDGE_WEIGHT_TYPE: EXPLICIT
EDGE_WEIGHT_FORMAT: FULL_MATRIX 
EDGE_WEIGHT_SECTION
44 
  0 130 130 130  50 300 300 300 340 340 340 340 460 460 460 580 580 580 820 820 820 420 180 180 210 230 600 135 135 305 305 345 345 465 465 105 135 155 1860 1860 2230 2230 2230 1000000 
 -1   0   0   0 180  30  30  30  50  50  50  50  60  60  60  80  80  80 480 480 480 320 110 110  80 110 150   5   5  35  35  55  55  65  65  35   5  35 1740 1740 1780 1780 1780 180 
 -1   0   0   0 180  30  30  30  50  50  50  50  60  60  60  80  80  80 480 480 480 320 110 110  80 110 150   5   5  35  35  55  55  65  65  35   5  35 1740 1740 1780 1780 1780 180 
 -1   0   0   0 180  30  30  30  50  50  50  50  60  60  60  80  80  80 480 480 480 320 110 110  80 110 150   5   5  35  35  55  55  65  65  35   5  35 1740 1740 1780 1780 1780 180 
 -1 130 130 130   0 130 130 130 150 150 150 150 160 160 160 180 180 180 580 580 580 420 230 230 210 180 250 135 135 135 135 155 155 165 165 155 135 105 1810 1810 1880 1880 1880  50 
 -1  30  30  30 180   0   0   0  20  20  20  20  30  30  30  60  60  60 120 120 120 560 300 300 110 110 130  35  35   5   5  25  25  35  35 225  35  35 1740 1740 1760 1760 1760 370 
 -1  30  30  30 180   0   0   0  20  20  20  20  30  30  30  60  60  60 120 120 120  -1 300 300 110 110 130  35  35   5   5  25  25  35  35 225  35  35 1740 1740 1760 1760 1760 370 
 -1  30  30  30 180   0   0   0  20  20  20  20  30  30  30  60  60  60 120 120 120 560 300 300 110 110 130  35  35   5   5  25  25  35  35 225  35  35 1740 1740 1760 1760 1760 370 
 -1  50  50  50 200  20  20  20   0   0   0   0  60  -1  60  80  80  80 120 120 120 560  -1 340 130 130 150  55  55  25  25   5   5  65  65 265  55  55 1760  -1 1780  -1 1780 410 
 -1  50  50  50 200  20  20  20   0   0   0   0  60  60  60  80  80  80 120 120 120 560 340 340 130 130 150  55  55  25  25   5   5  65  65 265  55  55 1760 1760 1780 1780 1780 410 
 -1  50  50  50 200  20  20  20   0   0   0   0  60  60  60  80  80  80 120 120 120 560 340 340 130 130 150  55  55  -1  25   5   5  65  65 265  55  55 1760 1760 1780 1780 1780 410 
 -1  50  50  50 200  20  20  20   0   0   0   0  60  60  60  80  80  80 120 120 120 560 340 340 130 130 150  55  55  25  25   5   5  65  65 265  55  55 1760 1760 1780 1780 1780 410 
 -1  60  60  60 210  30  30  30  30  30  30  30   0   0   0  60  60  60 120 120 120 620 460 460 140 140 120  65  65  35  35  35  35   5   5 385  65  65 1770 1770 1750 1750 1750 530 
 -1  60  60  60 210  30  30  30  30  30  30  30   0   0   0  60  60  60 120 120 120 620 460 460 140 140 120  65  65  35  35  35  35   5   5 385  65  65 1770 1770 1750 1750 1750 530 
 -1  60  60  60 210  30  30  30  30  30  30  30   0   0   0  60  60  60 120 120 120 620 460 460 140 140 120  65  65  35  35  35  35   5   5 385  65  65 1770 1770 1750 1750 1750 530 
 -1  80  80  80 230  60  60  60  80  80  80  80  60  60  60   0   0   0  60  60  60 1160 580 580 160 160 140  85  85  65  65  85  85  65  65 505  85  85 1790 1790 1770 1770 1770 650 
 -1  80  80  80  -1  60  60  60  80  80  80  80  -1  60  60   0   0   0  60  60  60 1160 580 580 160 160 140  85  85  65  65  85  85  65  65 505  85  85 1790 1790 1770 1770 1770 650 
 -1  80  80  80 230  60  60  60  80  80  80  80  60  60  60   0   0   0  60  60  60 1160 580 580 160 160 140  85  85  65  65  85  85  65  65 505  85  85 1790 1790 1770 1770 1770 650 
 -1 480 480 480 630 120 120 120 120 120 120 120 120 120 120  60  60  60   0   0   0 1760 820 820 560 560 200 485 485 125 125 125 125 125 125 745 485 485 2190 2190 1830 1830 1830 890 
 -1 480 480 480 630 120 120 120 120 120 120 120 120 120 120  60  60  60   0   0   0 1760 820 820 560 560 200 485 485 125 125 125 125 125 125 745 485 485 2190 2190 1830 1830 1830 890 
 -1 480 480 480 630 120 120 120 120 120 120 120 120 120 120  60  60  60   0   0   0 1760 820 820 560 560 200 485 485 125 125 125 125 125 125 745 485 485 2190 2190 1830 1830 1830 890 
 -1 230 230 230 380 280 280 280 280 280 280 280 380 380 380 800 800 800 1160 1160 1160   0 120 120 150 150 480 230 230 280 280 280 280 380 380 200 230 230 1900 1900 2230 2230 2230 350 
 -1 110 110 110 280 280 280 280 320 320 320 320 440  -1 440 560 560 560 800 800 800 240   0   0  30  50 420 110 110 280 280 320 320 440 440  80 110 130 1800 1800 2170  -1 2170 230 
 -1 110 110 110 280 280 280 280 320 320 320 320 440 440 440 560 560 560 800 800 800 240   0   0  30  50 420 110 110 280 280 320 320 440 440  80 110 130 1800 1800 2170 2170 2170 230 
 -1  80  80  80 260 110 110 110 130 130 130 130 140 140 140 160 160 160 560 560 560 240  30  30   0  30  70  80  80 110 110 130 130 140 140 110  80 110 1780 1780 1820 1820 1820 260 
 -1 110 110 110 230 110 110 110 130 130 130 130 140 140 140 160 160 160 560 560 560 240  50  50  30   0  70 110 110 110 110 130 130 140 140 130 110  80 1750 1750 1820 1820 1820 280 
 -1 150 150 150 300 130 130 130 150 150 150 150 120 120 120 110 110 110 200 200 200 720 440 440  70  70   0 150 150 130 130 150 150 120 120 520 150 150 1820 1820 1750 1750 1750 670 
 -1   5   5   5 185  35  35  35  55  55  55  55  65  65  65  85  85  85 485 485 485 320 110 110  80 110 150   0   0  30  30  50  -1  60  60  70  40  70 1740 1740 1780 1780 1780 185 
 -1   5   5   5 185  35  35  35  55  55  55  55  65  65  65  85  85  85 485 485 485 320 110 110  80 110 150   0   0  30  30  50  50  60  60  70  40  70 1740 1740 1780 1780 1780 185 
 -1  35  35  35 185   5   5   5  25  25  25  25  35  35  35  65  65  65 125 125 125 560 300 300 110 110 130  30  30   0   0  20  20  30  30 260  70  70 1740 1740 1760 1760 1760 375 
 -1  35  35  35 185   5   5   5  25  25  25  25  35  35  35  65  65  65 125 125 125 560 300 300 110 110 130  30  30   0   0  20  20  30  30 260  70  70 1740 1740 1760 1760 1760 375 
 -1  55  55  55 205  25  25  25   5   5   5   5  65  65  65  85  85  85 125 125 125 560 340 340 130 130 150  50  50  20  20   0   0  60  60 300  90  90 1760 1760 1780 1780 1780 415 
 -1  55  55  55 205  25  25  25   5   5   5   5  65  65  65  85  85  85 125 125 125 560 340 340 130 130 150  50  50  20  20   0   0  60  60 300  90  90 1760 1760 1780 1780 1780 415 
 -1  65  65  65 215  35  35  35  35  35  35  35   5   5   5  65  65  65 125 125 125 620 460 460 140 140 120  60  60  30  30  30  30   0   0 420 100 100 1770 1770 1750 1750 1750 535 
 -1  65  65  65 215  35  35  35  35  35  35  35   5   5   5  65  65  65 125 125 125 620 460 460 140 140 120  60  60  30  30  30  30   0   0 420 100 100 1770 1770 1750 1750 1750 535 
 -1  35  35  35 205 205 205 205 245 245 245 245 365 365 365 485 485 485 725 725 725 320  80  80 110 130 500  70  70 240 240 280 280 400 400   0  30  50 1760 1760 2130 2130 2130 155 
 -1   5   5   5 185  35  35  35  55  55  55  55  65  65  65  85  85  85 485 485 485 320 110 110  80 110 150  40  40  70  70  90  90 100 100  30   0  30 1740 1740 1780 1780 1780 185 
 -1  35  35  35 155  35  35  35  55  55  55  55  65  65  65  85  85  85 485 485 485 320 130 130 110  80 150  70  70  70  70  90  90 100 100  50  30   0 1710 1710 1780 1780 1780 205 
 -1 25070 25070 25070 25190 25070 25070 25070 25090 25090 25090 25090 25100 25100 25100 25120 25120 25120 25520 25520 25520 25320 25130 25130 25110 25080 25150 25070 25070 25070 25070 25090 25090 25100 25100 25090 25070 25040   0   0  70  70  70 25240 
 -1 25070 25070 25070 25190 25070 25070 25070 25090 25090 25090 25090 25100 25100 25100 25120 25120 25120 25520 25520 25520 25320 25130 25130 25110 25080 25150 25070 25070 25070 25070 25090 25090 25100 25100 25090 25070 25040   0   0  70  70  70 25240 
 -1 25110 25110 25110 25260 25090 25090 25090 25110 25110 25110 25110 25080 25080 25080 25070 25070 25070 25160 25160 25160 25800 25520 25520 25150 25150 25080 25110 25110 25090 25090 25110 25110 25080 25080 25480 25110 25110  70  70   0   0   0 25630 
 -1 25110 25110 25110 25260 25090 25090 25090 25110 25110 25110 25110 25080 25080 25080 25070 25070 25070 25160 25160 25160 25800 25520 25520 25150 25150 25080 25110 25110 25090 25090 25110 25110 25080 25080 25480 25110 25110  70  70   0   0   0 25630 
 -1 25110 25110 25110 25260 25090 25090 25090 25110 25110 25110 25110 25080 25080 25080 25070 25070 25070 25160 25160 25160 25800 25520 25520 25150 25150 25080 25110 25110 25090 25090 25110 25110 25080 25080 25480 25110 25110  70  70   0   0   0 25630 
 -1  -1  -1  -1  -1  -1  -1  -1  -1  -1  -1  -1  -1  -1  -1  -1  -1  -1  -1  -1  -1  -1  -1  -1  -1  -1  -1  -1  -1  -1  -1  -1  -1  -1  -1  -1  -1  -1  -1  -1  -1  -1  -1   0 
EOF
